%%%mzn-stat: initTime=0.017101421
%%%mzn-stat: objective=322
%%%mzn-stat: nodes=33065
%%%mzn-stat: restarts=5
%%%mzn-stat: peakDepth=522
%%%mzn-stat: solveTime=7.982800417
%%%mzn-stat: variables=1541
%%%mzn-stat: propagators=2394
%%%mzn-stat: failures=23966
%%%mzn-stat: propagations=5796011
%%%mzn-stat: nogoods=23966
%%%mzn-stat: AverageConflictSize=27.660852874906116
%%%mzn-stat: NumUnitNogoodsLearned=205
%%%mzn-stat: AverageLearnedNogoodLength=83.1292664608195
%%%mzn-stat: AverageBacktrackAmount=0
%%%mzn-stat: AverageLbd=16.82579487607444
%%%mzn-stat-end
maxleg = 322;
succ = array1d(1..50,[32, 40, 2, 24, 30, 37, 38, 4, 18, 26, 42, 49, 17, 29, 12, 15, 16, 33, 50, 27, 5, 35, 20, 47, 31, 36, 45, 14, 34, 9, 21, 28, 19, 39, 10, 3, 46, 8, 6, 48, 22, 1, 25, 43, 7, 23, 44, 11, 41, 13]);
% time elapsed: 8.51 s
----------
%%%mzn-stat: initTime=0.017101421
%%%mzn-stat: objective=321
%%%mzn-stat: nodes=37222
%%%mzn-stat: restarts=7
%%%mzn-stat: peakDepth=522
%%%mzn-stat: solveTime=9.118723144
%%%mzn-stat: variables=1541
%%%mzn-stat: propagators=2394
%%%mzn-stat: failures=26313
%%%mzn-stat: propagations=6526176
%%%mzn-stat: nogoods=26313
%%%mzn-stat: AverageConflictSize=27.460950860791243
%%%mzn-stat: NumUnitNogoodsLearned=205
%%%mzn-stat: AverageLearnedNogoodLength=83.2930490632007
%%%mzn-stat: AverageBacktrackAmount=0
%%%mzn-stat: AverageLbd=16.68547866073804
%%%mzn-stat-end
maxleg = 321;
succ = array1d(1..50,[32, 40, 2, 24, 9, 37, 38, 4, 30, 26, 42, 49, 17, 29, 12, 15, 16, 33, 50, 27, 5, 35, 20, 47, 31, 36, 45, 14, 34, 18, 21, 28, 19, 39, 10, 3, 46, 8, 6, 48, 22, 1, 25, 43, 7, 23, 44, 11, 41, 13]);
% time elapsed: 9.64 s
----------
%%%mzn-stat: initTime=0.017101421
%%%mzn-stat: objective=320
%%%mzn-stat: nodes=39933
%%%mzn-stat: restarts=8
%%%mzn-stat: peakDepth=577
%%%mzn-stat: solveTime=9.69606289
%%%mzn-stat: variables=1541
%%%mzn-stat: propagators=2394
%%%mzn-stat: failures=27690
%%%mzn-stat: propagations=6942917
%%%mzn-stat: nogoods=27690
%%%mzn-stat: AverageConflictSize=27.052076561935717
%%%mzn-stat: NumUnitNogoodsLearned=205
%%%mzn-stat: AverageLearnedNogoodLength=82.39960274467316
%%%mzn-stat: AverageBacktrackAmount=0
%%%mzn-stat: AverageLbd=16.522643553629468
%%%mzn-stat-end
maxleg = 320;
succ = array1d(1..50,[32, 40, 2, 24, 9, 37, 38, 4, 30, 26, 42, 49, 17, 29, 12, 15, 16, 33, 50, 27, 5, 35, 20, 47, 31, 36, 45, 14, 34, 18, 21, 28, 19, 39, 10, 3, 46, 8, 6, 48, 22, 1, 25, 43, 7, 23, 44, 11, 41, 13]);
% time elapsed: 10.22 s
----------
%%%mzn-stat: initTime=0.017101421
%%%mzn-stat: objective=319
%%%mzn-stat: nodes=41663
%%%mzn-stat: restarts=9
%%%mzn-stat: peakDepth=623
%%%mzn-stat: solveTime=10.010334209
%%%mzn-stat: variables=1541
%%%mzn-stat: propagators=2394
%%%mzn-stat: failures=28402
%%%mzn-stat: propagations=7145371
%%%mzn-stat: nogoods=28402
%%%mzn-stat: AverageConflictSize=26.953066685444686
%%%mzn-stat: NumUnitNogoodsLearned=205
%%%mzn-stat: AverageLearnedNogoodLength=82.31145693965213
%%%mzn-stat: AverageBacktrackAmount=0
%%%mzn-stat: AverageLbd=16.47612844165904
%%%mzn-stat-end
maxleg = 319;
succ = array1d(1..50,[32, 40, 2, 24, 9, 37, 38, 4, 30, 26, 42, 49, 17, 29, 12, 15, 16, 33, 50, 27, 5, 35, 20, 47, 31, 36, 45, 14, 34, 18, 21, 28, 19, 39, 10, 3, 46, 8, 6, 48, 22, 1, 25, 43, 7, 23, 44, 11, 41, 13]);
% time elapsed: 10.54 s
----------
%%%mzn-stat: initTime=0.017101421
%%%mzn-stat: objective=318
%%%mzn-stat: nodes=47347
%%%mzn-stat: restarts=10
%%%mzn-stat: peakDepth=623
%%%mzn-stat: solveTime=11.425757527
%%%mzn-stat: variables=1541
%%%mzn-stat: propagators=2394
%%%mzn-stat: failures=31943
%%%mzn-stat: propagations=7937530
%%%mzn-stat: nogoods=31943
%%%mzn-stat: AverageConflictSize=26.60454559684438
%%%mzn-stat: NumUnitNogoodsLearned=205
%%%mzn-stat: AverageLearnedNogoodLength=80.51375888301037
%%%mzn-stat: AverageBacktrackAmount=0
%%%mzn-stat: AverageLbd=16.206868484487995
%%%mzn-stat-end
maxleg = 318;
succ = array1d(1..50,[32, 40, 2, 24, 9, 37, 38, 4, 30, 26, 42, 49, 17, 29, 12, 15, 16, 33, 50, 27, 5, 35, 20, 47, 31, 36, 45, 14, 34, 18, 21, 28, 19, 39, 10, 3, 46, 8, 6, 48, 22, 1, 25, 43, 7, 23, 44, 11, 41, 13]);
% time elapsed: 11.96 s
----------
%%%mzn-stat: initTime=0.017101421
%%%mzn-stat: objective=317
%%%mzn-stat: nodes=56742
%%%mzn-stat: restarts=11
%%%mzn-stat: peakDepth=623
%%%mzn-stat: solveTime=14.408459071
%%%mzn-stat: variables=1541
%%%mzn-stat: propagators=2394
%%%mzn-stat: failures=38523
%%%mzn-stat: propagations=9645033
%%%mzn-stat: nogoods=38523
%%%mzn-stat: AverageConflictSize=27.730394829063158
%%%mzn-stat: NumUnitNogoodsLearned=205
%%%mzn-stat: AverageLearnedNogoodLength=84.20538379669289
%%%mzn-stat: AverageBacktrackAmount=0
%%%mzn-stat: AverageLbd=15.586610596267166
%%%mzn-stat-end
maxleg = 317;
succ = array1d(1..50,[32, 40, 2, 24, 9, 37, 38, 4, 30, 26, 42, 49, 17, 29, 12, 15, 16, 33, 50, 27, 5, 35, 20, 47, 31, 36, 45, 14, 34, 18, 21, 28, 19, 39, 10, 3, 46, 8, 6, 48, 22, 1, 25, 43, 7, 23, 44, 11, 41, 13]);
% time elapsed: 14.95 s
----------
%%%mzn-stat: initTime=0.017101421
%%%mzn-stat: objective=316
%%%mzn-stat: nodes=57776
%%%mzn-stat: restarts=12
%%%mzn-stat: peakDepth=623
%%%mzn-stat: solveTime=14.498630365
%%%mzn-stat: variables=1541
%%%mzn-stat: propagators=2394
%%%mzn-stat: failures=38691
%%%mzn-stat: propagations=9701722
%%%mzn-stat: nogoods=38691
%%%mzn-stat: AverageConflictSize=27.72326897728154
%%%mzn-stat: NumUnitNogoodsLearned=205
%%%mzn-stat: AverageLearnedNogoodLength=84.20446615491974
%%%mzn-stat: AverageBacktrackAmount=0
%%%mzn-stat: AverageLbd=15.583882556666925
%%%mzn-stat-end
maxleg = 316;
succ = array1d(1..50,[32, 40, 2, 24, 9, 37, 38, 4, 30, 26, 42, 49, 17, 29, 12, 15, 16, 33, 50, 27, 5, 35, 20, 47, 31, 36, 45, 14, 34, 18, 21, 28, 19, 39, 10, 3, 46, 8, 6, 48, 22, 1, 25, 43, 7, 23, 44, 11, 41, 13]);
% time elapsed: 15.04 s
----------
%%%mzn-stat: initTime=0.017101421
%%%mzn-stat: objective=315
%%%mzn-stat: nodes=59565
%%%mzn-stat: restarts=13
%%%mzn-stat: peakDepth=623
%%%mzn-stat: solveTime=14.868246667
%%%mzn-stat: variables=1541
%%%mzn-stat: propagators=2394
%%%mzn-stat: failures=39574
%%%mzn-stat: propagations=9964631
%%%mzn-stat: nogoods=39574
%%%mzn-stat: AverageConflictSize=27.718906352655782
%%%mzn-stat: NumUnitNogoodsLearned=205
%%%mzn-stat: AverageLearnedNogoodLength=84.55622378329205
%%%mzn-stat: AverageBacktrackAmount=0
%%%mzn-stat: AverageLbd=15.544953757517563
%%%mzn-stat-end
maxleg = 315;
succ = array1d(1..50,[32, 40, 36, 24, 9, 37, 38, 4, 30, 26, 42, 49, 2, 29, 13, 15, 16, 33, 50, 27, 5, 35, 20, 47, 31, 1, 45, 14, 34, 18, 21, 28, 19, 39, 10, 12, 46, 8, 6, 48, 22, 3, 25, 43, 7, 23, 44, 11, 41, 17]);
% time elapsed: 15.42 s
----------
%%%mzn-stat: initTime=0.017101421
%%%mzn-stat: objective=314
%%%mzn-stat: nodes=63533
%%%mzn-stat: restarts=16
%%%mzn-stat: peakDepth=623
%%%mzn-stat: solveTime=15.475686234
%%%mzn-stat: variables=1541
%%%mzn-stat: propagators=2394
%%%mzn-stat: failures=41587
%%%mzn-stat: propagations=10470655
%%%mzn-stat: nogoods=41587
%%%mzn-stat: AverageConflictSize=27.569577031283814
%%%mzn-stat: NumUnitNogoodsLearned=205
%%%mzn-stat: AverageLearnedNogoodLength=83.839469064852
%%%mzn-stat: AverageBacktrackAmount=0
%%%mzn-stat: AverageLbd=15.492197080818524
%%%mzn-stat-end
maxleg = 314;
succ = array1d(1..50,[32, 40, 36, 24, 9, 37, 38, 4, 30, 26, 42, 49, 2, 29, 13, 15, 16, 33, 50, 27, 5, 35, 45, 47, 31, 1, 23, 14, 34, 18, 21, 28, 19, 39, 10, 12, 46, 8, 6, 48, 22, 3, 25, 43, 7, 20, 44, 11, 41, 17]);
% time elapsed: 16.03 s
----------
%%%mzn-stat: initTime=0.017101421
%%%mzn-stat: objective=313
%%%mzn-stat: nodes=65234
%%%mzn-stat: restarts=17
%%%mzn-stat: peakDepth=623
%%%mzn-stat: solveTime=15.826259515
%%%mzn-stat: variables=1541
%%%mzn-stat: propagators=2394
%%%mzn-stat: failures=42460
%%%mzn-stat: propagations=10688538
%%%mzn-stat: nogoods=42460
%%%mzn-stat: AverageConflictSize=27.613141780499294
%%%mzn-stat: NumUnitNogoodsLearned=205
%%%mzn-stat: AverageLearnedNogoodLength=83.75732454074424
%%%mzn-stat: AverageBacktrackAmount=0
%%%mzn-stat: AverageLbd=15.454922279792745
%%%mzn-stat-end
maxleg = 313;
succ = array1d(1..50,[32, 40, 36, 24, 9, 37, 38, 4, 30, 26, 42, 49, 2, 29, 13, 15, 16, 33, 50, 27, 5, 35, 45, 47, 31, 1, 23, 14, 34, 18, 21, 28, 19, 39, 10, 12, 46, 8, 6, 48, 22, 3, 25, 43, 7, 20, 44, 11, 41, 17]);
% time elapsed: 16.38 s
----------
%%%mzn-stat: initTime=0.017101421
%%%mzn-stat: objective=312
%%%mzn-stat: nodes=68042
%%%mzn-stat: restarts=18
%%%mzn-stat: peakDepth=623
%%%mzn-stat: solveTime=16.666048355
%%%mzn-stat: variables=1541
%%%mzn-stat: propagators=2394
%%%mzn-stat: failures=44118
%%%mzn-stat: propagations=11071987
%%%mzn-stat: nogoods=44118
%%%mzn-stat: AverageConflictSize=28.30475089532617
%%%mzn-stat: NumUnitNogoodsLearned=205
%%%mzn-stat: AverageLearnedNogoodLength=85.55079559363526
%%%mzn-stat: AverageBacktrackAmount=0
%%%mzn-stat: AverageLbd=15.339249286005712
%%%mzn-stat-end
maxleg = 312;
succ = array1d(1..50,[32, 40, 36, 24, 9, 37, 38, 4, 30, 26, 42, 49, 2, 29, 13, 15, 16, 33, 50, 27, 5, 35, 45, 47, 31, 1, 23, 14, 34, 18, 21, 28, 19, 39, 10, 12, 46, 8, 6, 48, 22, 3, 25, 43, 7, 20, 44, 11, 41, 17]);
% time elapsed: 17.23 s
----------
%%%mzn-stat: initTime=0.017101421
%%%mzn-stat: objective=311
%%%mzn-stat: nodes=73307
%%%mzn-stat: restarts=19
%%%mzn-stat: peakDepth=623
%%%mzn-stat: solveTime=18.575597465
%%%mzn-stat: variables=1541
%%%mzn-stat: propagators=2394
%%%mzn-stat: failures=47789
%%%mzn-stat: propagations=12008589
%%%mzn-stat: nogoods=47789
%%%mzn-stat: AverageConflictSize=30.00581723827659
%%%mzn-stat: NumUnitNogoodsLearned=205
%%%mzn-stat: AverageLearnedNogoodLength=89.31718596329699
%%%mzn-stat: AverageBacktrackAmount=0
%%%mzn-stat: AverageLbd=15.148779007721442
%%%mzn-stat-end
maxleg = 311;
succ = array1d(1..50,[32, 40, 36, 24, 9, 37, 38, 4, 30, 26, 42, 49, 2, 29, 13, 15, 16, 33, 50, 27, 5, 35, 45, 47, 31, 1, 23, 14, 34, 18, 21, 28, 19, 39, 10, 12, 46, 8, 6, 48, 22, 3, 25, 43, 7, 20, 44, 11, 41, 17]);
% time elapsed: 19.14 s
----------
%%%mzn-stat: initTime=0.017101421
%%%mzn-stat: objective=310
%%%mzn-stat: nodes=98350
%%%mzn-stat: restarts=20
%%%mzn-stat: peakDepth=623
%%%mzn-stat: solveTime=28.655736705
%%%mzn-stat: variables=1541
%%%mzn-stat: propagators=2394
%%%mzn-stat: failures=67945
%%%mzn-stat: propagations=18187115
%%%mzn-stat: nogoods=67945
%%%mzn-stat: AverageConflictSize=32.525145338141144
%%%mzn-stat: NumUnitNogoodsLearned=205
%%%mzn-stat: AverageLearnedNogoodLength=98.14059901390831
%%%mzn-stat: AverageBacktrackAmount=0
%%%mzn-stat: AverageLbd=14.118625358746044
%%%mzn-stat-end
maxleg = 310;
succ = array1d(1..50,[32, 40, 36, 24, 9, 37, 38, 4, 30, 26, 42, 49, 2, 29, 13, 15, 16, 33, 50, 27, 5, 35, 45, 47, 31, 1, 23, 14, 34, 18, 21, 28, 19, 39, 10, 12, 46, 8, 6, 48, 22, 3, 25, 43, 7, 20, 44, 11, 41, 17]);
% time elapsed: 29.23 s
----------
%%%mzn-stat: initTime=0.017101421
%%%mzn-stat: objective=309
%%%mzn-stat: nodes=99996
%%%mzn-stat: restarts=21
%%%mzn-stat: peakDepth=623
%%%mzn-stat: solveTime=29.073703647
%%%mzn-stat: variables=1541
%%%mzn-stat: propagators=2394
%%%mzn-stat: failures=68734
%%%mzn-stat: propagations=18429600
%%%mzn-stat: nogoods=68734
%%%mzn-stat: AverageConflictSize=32.68769459074112
%%%mzn-stat: NumUnitNogoodsLearned=205
%%%mzn-stat: AverageLearnedNogoodLength=98.5189280414351
%%%mzn-stat: AverageBacktrackAmount=0
%%%mzn-stat: AverageLbd=14.11826752407833
%%%mzn-stat-end
maxleg = 309;
succ = array1d(1..50,[32, 40, 36, 24, 9, 37, 38, 4, 30, 26, 42, 49, 2, 29, 13, 15, 16, 33, 50, 27, 5, 35, 45, 47, 31, 1, 23, 14, 34, 18, 21, 28, 19, 39, 10, 12, 46, 8, 6, 48, 22, 3, 25, 43, 7, 20, 44, 11, 41, 17]);
% time elapsed: 29.65 s
----------
%%%mzn-stat: initTime=0.017101421
%%%mzn-stat: objective=308
%%%mzn-stat: nodes=102002
%%%mzn-stat: restarts=22
%%%mzn-stat: peakDepth=623
%%%mzn-stat: solveTime=29.488588904
%%%mzn-stat: variables=1541
%%%mzn-stat: propagators=2394
%%%mzn-stat: failures=69660
%%%mzn-stat: propagations=18670391
%%%mzn-stat: nogoods=69660
%%%mzn-stat: AverageConflictSize=32.7727964398507
%%%mzn-stat: NumUnitNogoodsLearned=205
%%%mzn-stat: AverageLearnedNogoodLength=98.676370944588
%%%mzn-stat: AverageBacktrackAmount=0
%%%mzn-stat: AverageLbd=14.100961814527706
%%%mzn-stat-end
maxleg = 308;
succ = array1d(1..50,[32, 40, 36, 24, 9, 37, 38, 4, 30, 26, 42, 49, 2, 29, 13, 15, 16, 33, 50, 27, 5, 35, 45, 47, 31, 1, 23, 14, 34, 18, 21, 28, 19, 39, 10, 12, 46, 8, 6, 48, 22, 3, 25, 43, 7, 20, 44, 11, 41, 17]);
% time elapsed: 30.07 s
----------
%%%mzn-stat: initTime=0.017101421
%%%mzn-stat: objective=307
%%%mzn-stat: nodes=103123
%%%mzn-stat: restarts=23
%%%mzn-stat: peakDepth=623
%%%mzn-stat: solveTime=29.610735875
%%%mzn-stat: variables=1541
%%%mzn-stat: propagators=2394
%%%mzn-stat: failures=70013
%%%mzn-stat: propagations=18760622
%%%mzn-stat: nogoods=70013
%%%mzn-stat: AverageConflictSize=32.69499950009284
%%%mzn-stat: NumUnitNogoodsLearned=205
%%%mzn-stat: AverageLearnedNogoodLength=98.5176467227515
%%%mzn-stat: AverageBacktrackAmount=0
%%%mzn-stat: AverageLbd=14.098681673403512
%%%mzn-stat-end
maxleg = 307;
succ = array1d(1..50,[32, 40, 36, 24, 9, 37, 38, 4, 30, 26, 42, 49, 2, 29, 13, 15, 16, 33, 50, 27, 5, 35, 45, 47, 31, 1, 23, 14, 34, 18, 21, 28, 19, 39, 10, 12, 46, 8, 6, 48, 22, 3, 25, 43, 7, 20, 44, 11, 41, 17]);
% time elapsed: 30.19 s
----------
%%%mzn-stat: initTime=0.017101421
%%%mzn-stat: objective=304
%%%mzn-stat: nodes=104083
%%%mzn-stat: restarts=24
%%%mzn-stat: peakDepth=623
%%%mzn-stat: solveTime=29.684477676
%%%mzn-stat: variables=1541
%%%mzn-stat: propagators=2394
%%%mzn-stat: failures=70247
%%%mzn-stat: propagations=18809720
%%%mzn-stat: nogoods=70247
%%%mzn-stat: AverageConflictSize=32.67057667943115
%%%mzn-stat: NumUnitNogoodsLearned=205
%%%mzn-stat: AverageLearnedNogoodLength=98.42569789457201
%%%mzn-stat: AverageBacktrackAmount=0
%%%mzn-stat: AverageLbd=14.096359986903355
%%%mzn-stat-end
maxleg = 304;
succ = array1d(1..50,[32, 40, 36, 24, 9, 42, 38, 4, 30, 26, 37, 49, 3, 29, 12, 2, 16, 33, 50, 27, 5, 35, 45, 47, 31, 1, 23, 14, 34, 18, 21, 28, 19, 39, 10, 15, 46, 8, 6, 48, 22, 11, 25, 43, 7, 20, 44, 13, 41, 17]);
% time elapsed: 30.27 s
----------
%%%mzn-stat: initTime=0.017101421
%%%mzn-stat: objective=297
%%%mzn-stat: nodes=125442
%%%mzn-stat: restarts=27
%%%mzn-stat: peakDepth=623
%%%mzn-stat: solveTime=36.239724531
%%%mzn-stat: variables=1541
%%%mzn-stat: propagators=2394
%%%mzn-stat: failures=86247
%%%mzn-stat: propagations=22651092
%%%mzn-stat: nogoods=86247
%%%mzn-stat: AverageConflictSize=32.155332939116725
%%%mzn-stat: NumUnitNogoodsLearned=205
%%%mzn-stat: AverageLearnedNogoodLength=98.42357415330389
%%%mzn-stat: AverageBacktrackAmount=0
%%%mzn-stat: AverageLbd=13.533688128282723
%%%mzn-stat-end
maxleg = 297;
succ = array1d(1..50,[32, 40, 36, 24, 9, 42, 27, 4, 30, 26, 37, 49, 3, 29, 12, 2, 16, 33, 50, 38, 5, 35, 45, 47, 31, 1, 23, 14, 34, 18, 21, 28, 19, 39, 10, 15, 46, 8, 6, 48, 22, 11, 25, 43, 20, 7, 44, 13, 41, 17]);
% time elapsed: 36.83 s
----------
%%%mzn-stat: initTime=0.017101421
%%%mzn-stat: objective=290
%%%mzn-stat: nodes=135054
%%%mzn-stat: restarts=33
%%%mzn-stat: peakDepth=623
%%%mzn-stat: solveTime=38.535516477
%%%mzn-stat: variables=1541
%%%mzn-stat: propagators=2394
%%%mzn-stat: failures=92193
%%%mzn-stat: propagations=24211125
%%%mzn-stat: nogoods=92193
%%%mzn-stat: AverageConflictSize=32.16273469786209
%%%mzn-stat: NumUnitNogoodsLearned=205
%%%mzn-stat: AverageLearnedNogoodLength=98.27009642814531
%%%mzn-stat: AverageBacktrackAmount=0
%%%mzn-stat: AverageLbd=13.478387730087968
%%%mzn-stat-end
maxleg = 290;
succ = array1d(1..50,[15, 40, 36, 24, 9, 42, 27, 4, 30, 26, 37, 49, 3, 29, 11, 2, 16, 33, 28, 38, 5, 35, 45, 47, 31, 1, 23, 14, 34, 18, 21, 6, 19, 39, 10, 12, 46, 8, 32, 48, 22, 50, 25, 43, 20, 7, 44, 13, 41, 17]);
% time elapsed: 39.14 s
----------
%%%mzn-stat: initTime=0.017101421
%%%mzn-stat: objective=287
%%%mzn-stat: nodes=135773
%%%mzn-stat: restarts=34
%%%mzn-stat: peakDepth=623
%%%mzn-stat: solveTime=38.580695337
%%%mzn-stat: variables=1541
%%%mzn-stat: propagators=2394
%%%mzn-stat: failures=92241
%%%mzn-stat: propagations=24234063
%%%mzn-stat: nogoods=92241
%%%mzn-stat: AverageConflictSize=32.16139243937078
%%%mzn-stat: NumUnitNogoodsLearned=205
%%%mzn-stat: AverageLearnedNogoodLength=98.27932264394359
%%%mzn-stat: AverageBacktrackAmount=0
%%%mzn-stat: AverageLbd=13.481954879066793
%%%mzn-stat-end
maxleg = 287;
succ = array1d(1..50,[15, 40, 36, 24, 9, 42, 27, 4, 30, 26, 37, 49, 3, 29, 2, 13, 16, 33, 28, 38, 5, 35, 45, 47, 31, 1, 23, 14, 34, 18, 21, 6, 19, 39, 10, 12, 46, 8, 32, 48, 22, 50, 25, 43, 20, 7, 44, 11, 41, 17]);
% time elapsed: 39.18 s
----------
%%%mzn-stat: initTime=0.017101421
%%%mzn-stat: objective=280
%%%mzn-stat: nodes=148870
%%%mzn-stat: restarts=38
%%%mzn-stat: peakDepth=623
%%%mzn-stat: solveTime=40.992451028
%%%mzn-stat: variables=1541
%%%mzn-stat: propagators=2394
%%%mzn-stat: failures=101948
%%%mzn-stat: propagations=26294642
%%%mzn-stat: nogoods=101948
%%%mzn-stat: AverageConflictSize=30.581747557578375
%%%mzn-stat: NumUnitNogoodsLearned=205
%%%mzn-stat: AverageLearnedNogoodLength=94.13859026170205
%%%mzn-stat: AverageBacktrackAmount=0
%%%mzn-stat: AverageLbd=13.279671989641779
%%%mzn-stat-end
maxleg = 280;
succ = array1d(1..50,[15, 40, 36, 21, 9, 42, 27, 4, 30, 26, 37, 49, 3, 29, 2, 13, 16, 31, 14, 47, 5, 35, 45, 38, 43, 1, 23, 33, 34, 18, 25, 6, 19, 39, 10, 12, 46, 8, 32, 48, 22, 50, 28, 24, 20, 7, 44, 11, 41, 17]);
% time elapsed: 41.60 s
----------
%%%mzn-stat: initTime=0.017101421
%%%mzn-stat: objective=279
%%%mzn-stat: nodes=152376
%%%mzn-stat: restarts=39
%%%mzn-stat: peakDepth=623
%%%mzn-stat: solveTime=41.806964103
%%%mzn-stat: variables=1541
%%%mzn-stat: propagators=2394
%%%mzn-stat: failures=104100
%%%mzn-stat: propagations=26714035
%%%mzn-stat: nogoods=104100
%%%mzn-stat: AverageConflictSize=30.557195004803074
%%%mzn-stat: NumUnitNogoodsLearned=205
%%%mzn-stat: AverageLearnedNogoodLength=94.04256484149856
%%%mzn-stat: AverageBacktrackAmount=0
%%%mzn-stat: AverageLbd=13.251575408261287
%%%mzn-stat-end
maxleg = 279;
succ = array1d(1..50,[15, 40, 36, 21, 9, 42, 27, 4, 30, 26, 37, 49, 3, 29, 2, 13, 16, 31, 14, 47, 5, 35, 45, 38, 43, 1, 23, 33, 34, 18, 25, 6, 19, 39, 10, 12, 46, 8, 32, 48, 22, 50, 28, 24, 20, 7, 44, 11, 41, 17]);
% time elapsed: 42.42 s
----------
%%%mzn-stat: initTime=0.017101421
%%%mzn-stat: objective=278
%%%mzn-stat: nodes=155464
%%%mzn-stat: restarts=40
%%%mzn-stat: peakDepth=623
%%%mzn-stat: solveTime=42.482179882
%%%mzn-stat: variables=1541
%%%mzn-stat: propagators=2394
%%%mzn-stat: failures=105870
%%%mzn-stat: propagations=27071307
%%%mzn-stat: nogoods=105870
%%%mzn-stat: AverageConflictSize=30.522225370737697
%%%mzn-stat: NumUnitNogoodsLearned=205
%%%mzn-stat: AverageLearnedNogoodLength=93.84484745442523
%%%mzn-stat: AverageBacktrackAmount=0
%%%mzn-stat: AverageLbd=13.206980258807972
%%%mzn-stat-end
maxleg = 278;
succ = array1d(1..50,[15, 40, 36, 21, 9, 42, 27, 4, 30, 26, 37, 49, 3, 29, 2, 13, 16, 31, 14, 47, 5, 35, 45, 38, 43, 1, 23, 33, 34, 18, 25, 6, 19, 39, 10, 12, 46, 8, 32, 48, 22, 50, 28, 24, 20, 7, 44, 11, 41, 17]);
% time elapsed: 43.10 s
----------
%%%mzn-stat: initTime=0.017101421
%%%mzn-stat: objective=275
%%%mzn-stat: nodes=157829
%%%mzn-stat: restarts=42
%%%mzn-stat: peakDepth=623
%%%mzn-stat: solveTime=42.876881278
%%%mzn-stat: variables=1541
%%%mzn-stat: propagators=2394
%%%mzn-stat: failures=107226
%%%mzn-stat: propagations=27359359
%%%mzn-stat: nogoods=107226
%%%mzn-stat: AverageConflictSize=30.355249659597487
%%%mzn-stat: NumUnitNogoodsLearned=205
%%%mzn-stat: AverageLearnedNogoodLength=93.45817245817246
%%%mzn-stat: AverageBacktrackAmount=0
%%%mzn-stat: AverageLbd=13.186298099341577
%%%mzn-stat-end
maxleg = 275;
succ = array1d(1..50,[15, 40, 36, 21, 14, 42, 23, 4, 30, 26, 37, 49, 3, 29, 2, 13, 16, 31, 33, 47, 5, 35, 45, 38, 43, 1, 20, 34, 19, 18, 25, 6, 9, 39, 10, 12, 46, 8, 32, 48, 22, 50, 28, 24, 27, 7, 44, 11, 41, 17]);
% time elapsed: 43.50 s
----------
%%%mzn-stat: initTime=0.017101421
%%%mzn-stat: objective=274
%%%mzn-stat: nodes=159746
%%%mzn-stat: restarts=43
%%%mzn-stat: peakDepth=623
%%%mzn-stat: solveTime=43.272388651
%%%mzn-stat: variables=1541
%%%mzn-stat: propagators=2394
%%%mzn-stat: failures=108259
%%%mzn-stat: propagations=27590385
%%%mzn-stat: nogoods=108259
%%%mzn-stat: AverageConflictSize=30.349966284558327
%%%mzn-stat: NumUnitNogoodsLearned=205
%%%mzn-stat: AverageLearnedNogoodLength=93.58265825474095
%%%mzn-stat: AverageBacktrackAmount=0
%%%mzn-stat: AverageLbd=13.168189249854516
%%%mzn-stat-end
maxleg = 274;
succ = array1d(1..50,[15, 40, 36, 21, 14, 42, 23, 4, 30, 26, 37, 49, 3, 29, 2, 17, 13, 31, 33, 47, 5, 35, 45, 38, 43, 1, 20, 34, 19, 18, 25, 6, 9, 39, 10, 12, 46, 8, 32, 48, 22, 50, 28, 24, 27, 7, 44, 11, 41, 16]);
% time elapsed: 43.90 s
----------
%%%mzn-stat: initTime=0.017101421
%%%mzn-stat: objective=270
%%%mzn-stat: nodes=178614
%%%mzn-stat: restarts=51
%%%mzn-stat: peakDepth=623
%%%mzn-stat: solveTime=48.010121058
%%%mzn-stat: variables=1541
%%%mzn-stat: propagators=2394
%%%mzn-stat: failures=122429
%%%mzn-stat: propagations=31125790
%%%mzn-stat: nogoods=122429
%%%mzn-stat: AverageConflictSize=30.123059079139747
%%%mzn-stat: NumUnitNogoodsLearned=205
%%%mzn-stat: AverageLearnedNogoodLength=92.03923090117537
%%%mzn-stat: AverageBacktrackAmount=0
%%%mzn-stat: AverageLbd=12.951155363516813
%%%mzn-stat-end
maxleg = 270;
succ = array1d(1..50,[15, 40, 36, 21, 14, 42, 23, 4, 30, 26, 6, 49, 3, 29, 2, 17, 13, 31, 33, 47, 5, 35, 45, 38, 43, 1, 20, 34, 19, 18, 25, 7, 9, 50, 10, 12, 39, 8, 32, 48, 22, 46, 28, 24, 27, 37, 44, 11, 41, 16]);
% time elapsed: 48.64 s
----------
%%%mzn-stat: initTime=0.017101421
%%%mzn-stat: objective=268
%%%mzn-stat: nodes=183080
%%%mzn-stat: restarts=52
%%%mzn-stat: peakDepth=623
%%%mzn-stat: solveTime=49.181625708
%%%mzn-stat: variables=1541
%%%mzn-stat: propagators=2394
%%%mzn-stat: failures=125209
%%%mzn-stat: propagations=31761841
%%%mzn-stat: nogoods=125209
%%%mzn-stat: AverageConflictSize=30.06604956512711
%%%mzn-stat: NumUnitNogoodsLearned=205
%%%mzn-stat: AverageLearnedNogoodLength=92.55902530968221
%%%mzn-stat: AverageBacktrackAmount=0
%%%mzn-stat: AverageLbd=12.942783665710932
%%%mzn-stat-end
maxleg = 268;
succ = array1d(1..50,[15, 40, 36, 21, 14, 42, 23, 4, 30, 26, 6, 49, 12, 29, 2, 17, 13, 31, 33, 47, 5, 35, 45, 38, 43, 1, 20, 34, 19, 18, 25, 7, 9, 50, 10, 22, 39, 8, 32, 48, 3, 46, 28, 24, 27, 37, 44, 11, 41, 16]);
% time elapsed: 49.82 s
----------
%%%mzn-stat: initTime=0.017101421
%%%mzn-stat: objective=267
%%%mzn-stat: nodes=184212
%%%mzn-stat: restarts=54
%%%mzn-stat: peakDepth=623
%%%mzn-stat: solveTime=49.270207133
%%%mzn-stat: variables=1541
%%%mzn-stat: propagators=2394
%%%mzn-stat: failures=125467
%%%mzn-stat: propagations=31831635
%%%mzn-stat: nogoods=125467
%%%mzn-stat: AverageConflictSize=30.038273012027066
%%%mzn-stat: NumUnitNogoodsLearned=205
%%%mzn-stat: AverageLearnedNogoodLength=92.48620752867288
%%%mzn-stat: AverageBacktrackAmount=0
%%%mzn-stat: AverageLbd=12.944750412459053
%%%mzn-stat-end
maxleg = 267;
succ = array1d(1..50,[15, 40, 36, 21, 14, 42, 23, 4, 30, 26, 6, 49, 12, 29, 2, 17, 13, 31, 33, 47, 25, 35, 45, 38, 43, 1, 20, 34, 19, 18, 50, 7, 9, 5, 10, 22, 39, 8, 32, 48, 3, 46, 28, 24, 27, 37, 44, 11, 41, 16]);
% time elapsed: 49.91 s
----------
%%%mzn-stat: initTime=0.017101421
%%%mzn-stat: objective=266
%%%mzn-stat: nodes=188529
%%%mzn-stat: restarts=56
%%%mzn-stat: peakDepth=623
%%%mzn-stat: solveTime=50.291612897
%%%mzn-stat: variables=1541
%%%mzn-stat: propagators=2394
%%%mzn-stat: failures=128296
%%%mzn-stat: propagations=32417819
%%%mzn-stat: nogoods=128296
%%%mzn-stat: AverageConflictSize=29.92214098646879
%%%mzn-stat: NumUnitNogoodsLearned=205
%%%mzn-stat: AverageLearnedNogoodLength=92.28705493546174
%%%mzn-stat: AverageBacktrackAmount=0
%%%mzn-stat: AverageLbd=12.917058988588888
%%%mzn-stat-end
maxleg = 266;
succ = array1d(1..50,[15, 40, 36, 21, 14, 42, 23, 4, 30, 26, 6, 49, 12, 29, 2, 17, 13, 31, 33, 47, 25, 35, 45, 38, 43, 1, 20, 34, 19, 18, 39, 50, 9, 5, 10, 22, 7, 8, 32, 48, 3, 46, 28, 24, 27, 37, 44, 11, 41, 16]);
% time elapsed: 50.94 s
----------
%%%mzn-stat: initTime=0.017101421
%%%mzn-stat: objective=265
%%%mzn-stat: nodes=192370
%%%mzn-stat: restarts=57
%%%mzn-stat: peakDepth=623
%%%mzn-stat: solveTime=51.535251688
%%%mzn-stat: variables=1541
%%%mzn-stat: propagators=2394
%%%mzn-stat: failures=130824
%%%mzn-stat: propagations=32925144
%%%mzn-stat: nogoods=130824
%%%mzn-stat: AverageConflictSize=30.026577692166576
%%%mzn-stat: NumUnitNogoodsLearned=205
%%%mzn-stat: AverageLearnedNogoodLength=92.63357640799853
%%%mzn-stat: AverageBacktrackAmount=0
%%%mzn-stat: AverageLbd=12.899811961108053
%%%mzn-stat-end
maxleg = 265;
succ = array1d(1..50,[15, 40, 36, 21, 14, 42, 23, 4, 30, 26, 6, 49, 12, 29, 2, 17, 13, 31, 33, 47, 25, 35, 45, 38, 43, 1, 20, 34, 19, 18, 39, 50, 9, 5, 10, 22, 7, 8, 32, 48, 3, 46, 28, 24, 27, 37, 44, 11, 41, 16]);
% time elapsed: 52.18 s
----------
%%%mzn-stat: initTime=0.017101421
%%%mzn-stat: objective=264
%%%mzn-stat: nodes=193539
%%%mzn-stat: restarts=58
%%%mzn-stat: peakDepth=623
%%%mzn-stat: solveTime=51.720554676
%%%mzn-stat: variables=1541
%%%mzn-stat: propagators=2394
%%%mzn-stat: failures=131241
%%%mzn-stat: propagations=33012312
%%%mzn-stat: nogoods=131241
%%%mzn-stat: AverageConflictSize=30.009753049732932
%%%mzn-stat: NumUnitNogoodsLearned=205
%%%mzn-stat: AverageLearnedNogoodLength=92.61013707606617
%%%mzn-stat: AverageBacktrackAmount=0
%%%mzn-stat: AverageLbd=12.897585358234089
%%%mzn-stat-end
maxleg = 264;
succ = array1d(1..50,[15, 40, 36, 21, 14, 42, 23, 4, 30, 26, 6, 49, 12, 29, 2, 17, 13, 31, 33, 47, 25, 35, 45, 38, 43, 1, 20, 34, 19, 18, 39, 50, 9, 5, 10, 22, 7, 8, 32, 48, 3, 46, 28, 24, 27, 37, 44, 11, 41, 16]);
% time elapsed: 52.37 s
----------
%%%mzn-stat: initTime=0.017101421
%%%mzn-stat: objective=263
%%%mzn-stat: nodes=212688
%%%mzn-stat: restarts=68
%%%mzn-stat: peakDepth=623
%%%mzn-stat: solveTime=55.189647095
%%%mzn-stat: variables=1541
%%%mzn-stat: propagators=2394
%%%mzn-stat: failures=145423
%%%mzn-stat: propagations=35986003
%%%mzn-stat: nogoods=145423
%%%mzn-stat: AverageConflictSize=28.28556693232845
%%%mzn-stat: NumUnitNogoodsLearned=205
%%%mzn-stat: AverageLearnedNogoodLength=88.27252222825825
%%%mzn-stat: AverageBacktrackAmount=0
%%%mzn-stat: AverageLbd=12.645358712170703
%%%mzn-stat-end
maxleg = 263;
succ = array1d(1..50,[15, 40, 36, 21, 14, 13, 23, 4, 29, 26, 6, 49, 12, 33, 2, 42, 16, 31, 30, 47, 25, 35, 45, 38, 43, 1, 20, 34, 18, 9, 39, 50, 19, 5, 10, 22, 7, 8, 32, 48, 3, 46, 28, 24, 27, 37, 44, 17, 41, 11]);
% time elapsed: 55.85 s
----------
%%%mzn-stat: initTime=0.017101421
%%%mzn-stat: objective=262
%%%mzn-stat: nodes=213295
%%%mzn-stat: restarts=69
%%%mzn-stat: peakDepth=623
%%%mzn-stat: solveTime=55.211622337
%%%mzn-stat: variables=1541
%%%mzn-stat: propagators=2394
%%%mzn-stat: failures=145446
%%%mzn-stat: propagations=35999511
%%%mzn-stat: nogoods=145446
%%%mzn-stat: AverageConflictSize=28.2843185787165
%%%mzn-stat: NumUnitNogoodsLearned=205
%%%mzn-stat: AverageLearnedNogoodLength=88.2725547625923
%%%mzn-stat: AverageBacktrackAmount=0
%%%mzn-stat: AverageLbd=12.645930448413845
%%%mzn-stat-end
maxleg = 262;
succ = array1d(1..50,[3, 40, 36, 21, 14, 13, 23, 4, 29, 26, 6, 49, 12, 33, 2, 42, 16, 31, 30, 47, 25, 35, 45, 38, 43, 1, 20, 34, 18, 9, 39, 50, 19, 5, 10, 15, 7, 8, 32, 48, 22, 46, 28, 24, 27, 37, 44, 17, 41, 11]);
% time elapsed: 55.87 s
----------
%%%mzn-stat: initTime=0.017101421
%%%mzn-stat: objective=261
%%%mzn-stat: nodes=216435
%%%mzn-stat: restarts=70
%%%mzn-stat: peakDepth=623
%%%mzn-stat: solveTime=55.970267423
%%%mzn-stat: variables=1541
%%%mzn-stat: propagators=2394
%%%mzn-stat: failures=147403
%%%mzn-stat: propagations=36479893
%%%mzn-stat: nogoods=147403
%%%mzn-stat: AverageConflictSize=28.352862560463493
%%%mzn-stat: NumUnitNogoodsLearned=205
%%%mzn-stat: AverageLearnedNogoodLength=88.44419720087109
%%%mzn-stat: AverageBacktrackAmount=0
%%%mzn-stat: AverageLbd=12.618277782677422
%%%mzn-stat-end
maxleg = 261;
succ = array1d(1..50,[3, 40, 36, 21, 14, 13, 23, 4, 29, 26, 6, 49, 12, 33, 2, 42, 16, 31, 30, 47, 25, 35, 45, 38, 43, 1, 20, 34, 18, 9, 39, 50, 19, 5, 10, 15, 7, 8, 32, 48, 22, 46, 28, 24, 27, 37, 44, 17, 41, 11]);
% time elapsed: 56.64 s
----------
%%%mzn-stat: initTime=0.017101421
%%%mzn-stat: objective=255
%%%mzn-stat: nodes=219611
%%%mzn-stat: restarts=73
%%%mzn-stat: peakDepth=623
%%%mzn-stat: solveTime=56.597381575
%%%mzn-stat: variables=1541
%%%mzn-stat: propagators=2394
%%%mzn-stat: failures=149355
%%%mzn-stat: propagations=36897884
%%%mzn-stat: nogoods=149355
%%%mzn-stat: AverageConflictSize=28.23694553245623
%%%mzn-stat: NumUnitNogoodsLearned=205
%%%mzn-stat: AverageLearnedNogoodLength=88.04434401258746
%%%mzn-stat: AverageBacktrackAmount=0
%%%mzn-stat: AverageLbd=12.616517692745472
%%%mzn-stat-end
maxleg = 255;
succ = array1d(1..50,[3, 40, 36, 21, 14, 46, 23, 4, 29, 26, 42, 49, 12, 33, 2, 6, 16, 31, 30, 47, 25, 35, 45, 38, 43, 1, 20, 34, 18, 9, 39, 50, 19, 5, 10, 15, 7, 8, 32, 48, 22, 13, 28, 24, 27, 37, 44, 17, 41, 11]);
% time elapsed: 57.27 s
----------
%%%mzn-stat: initTime=0.017101421
%%%mzn-stat: objective=254
%%%mzn-stat: nodes=220563
%%%mzn-stat: restarts=74
%%%mzn-stat: peakDepth=623
%%%mzn-stat: solveTime=56.715432281
%%%mzn-stat: variables=1541
%%%mzn-stat: propagators=2394
%%%mzn-stat: failures=149646
%%%mzn-stat: propagations=36971823
%%%mzn-stat: nogoods=149646
%%%mzn-stat: AverageConflictSize=28.237620785052723
%%%mzn-stat: NumUnitNogoodsLearned=205
%%%mzn-stat: AverageLearnedNogoodLength=88.05745559520469
%%%mzn-stat: AverageBacktrackAmount=0
%%%mzn-stat: AverageLbd=12.61895406492656
%%%mzn-stat-end
maxleg = 254;
succ = array1d(1..50,[3, 40, 36, 21, 14, 46, 23, 4, 29, 26, 42, 49, 15, 33, 12, 6, 16, 31, 30, 47, 25, 35, 45, 38, 43, 1, 20, 34, 18, 9, 39, 50, 19, 5, 10, 2, 7, 8, 32, 48, 22, 13, 28, 24, 27, 37, 44, 17, 41, 11]);
% time elapsed: 57.39 s
----------
%%%mzn-stat: initTime=0.017101421
%%%mzn-stat: objective=252
%%%mzn-stat: nodes=232265
%%%mzn-stat: restarts=76
%%%mzn-stat: peakDepth=623
%%%mzn-stat: solveTime=59.47409976
%%%mzn-stat: variables=1541
%%%mzn-stat: propagators=2394
%%%mzn-stat: failures=158864
%%%mzn-stat: propagations=38856159
%%%mzn-stat: nogoods=158864
%%%mzn-stat: AverageConflictSize=27.61827726860711
%%%mzn-stat: NumUnitNogoodsLearned=205
%%%mzn-stat: AverageLearnedNogoodLength=86.23764981367711
%%%mzn-stat: AverageBacktrackAmount=0
%%%mzn-stat: AverageLbd=12.465253298418773
%%%mzn-stat-end
maxleg = 252;
succ = array1d(1..50,[3, 40, 36, 21, 14, 46, 23, 4, 29, 26, 13, 49, 15, 33, 12, 6, 16, 31, 30, 47, 25, 35, 45, 38, 43, 1, 20, 34, 18, 9, 39, 50, 19, 5, 10, 2, 7, 8, 42, 48, 22, 32, 28, 24, 27, 37, 44, 17, 41, 11]);
% time elapsed: 60.15 s
----------
=====ERROR=====
% time elapsed: 1505.53 s
